NaCl primitive test
1.0
  5.640  0.000  0.000
  0.000  5.640  0.000
  0.000  0.000  5.640
Na Cl
1 1
Direct
  0.00 0.00 0.00
  0.50 0.50 0.50
