CO molecule MD restart
1.0
  6.0  0.0  0.0
  0.0  6.0  0.0
  0.0  0.0  6.0
C O
1 1
Direct
  0.0 0.0 0.0
  0.5 0.0 0.0

Cartesian
  0.010  0.000  0.000
 -0.010  0.000  0.000
